c This is QMaxSAT 2017 based on 14.07
c This is Glucose 3.0
c This is MiniSat 2.2.0
c WARNING: for repeatability, setting FPU to use double precision
c card = mrwto, comp = 0, pmodel = 0, narr = 2, mct = 42, verb = 0
cr firstCPXsol 0 0 0
c top = 127531
c |  Number of variables:    70768                                            |
c |  Number of clauses:      52867618                                         |
c |  Weight of hard clauses: 127531                                           |
c |  Number of soft clauses: 3444                                             |
c |  Number of unit soft clauses: 3444                                        |
c |  Maximum Cardinality (by unit): 255060       (255060      )               |
c last restart ## conflicts  :  0 1765 
o 549 | cpuTime 4.35726 s
c Sum of weights = 127530
c A number of soft clauses remained = 1722
c MRWTO encoding for Pseudo-Boolean Constraints
c sizeMax=549
c No.0 Divisor=9	generated by pow1
c No.1 Divisor=9	generated by pow1
c No.2 Divisor=9	generated by pow1
c p0= 9	p1= 9	p2= 9	
c number of digits = 4
c linkingVar[0].size = 9, linkingVar[1].size = 9, linkingVar[2].size = 7, linkingVar[3].size = 1, 
c Pseudo-Boolean Constraints: 30744 variables and 223939 clauses
c Sum of weights = 127530
c A number of soft clauses remained = 1722
c MRWTO encoding for Pseudo-Boolean Constraints
c sizeMax=549
c No.0 Divisor=9	generated by pow1
c No.1 Divisor=9	generated by pow1
c No.2 Divisor=9	generated by pow1
c p0= 9	p1= 9	p2= 9	
c number of digits = 4
c linkingVar[0].size = 9, linkingVar[1].size = 9, linkingVar[2].size = 7, linkingVar[3].size = 1, 
c Pseudo-Boolean Constraints: 30744 variables and 223939 clauses
s UNKNOWN
c Search is stopped by a limit (maybe time-limit)
cr positiVarArr: [ | 2@1(1->2) | 45@1(2->3) | 88@1(3->4) | 131@1(4->5) | 174@1(5->6) | 217@1(6->7) | 260@1(7->8) | 303@1(8->9) | 346@1(9->10) | 389@1(10->11) | 432@1(11->12) | 475@1(12->13) | 518@1(13->14) | 561@1(14->15) | 604@1(15->16) | 647@1(16->17) | 690@1(17->18) | 733@1(18->19) | 776@1(19->20) | 819@1(20->21) | 862@1(21->22) | 883@1(22->1) | 1787@2(1->23) | 2712@2(23->24) | 2755@2(24->25) | 2798@2(25->26) | 2841@2(26->27) | 2884@2(27->28) | 2927@2(28->29) | 2970@2(29->30) | 3013@2(30->31) | 3056@2(31->32) | 3099@2(32->33) | 3142@2(33->34) | 3185@2(34->35) | 3228@2(35->36) | 3271@2(36->37) | 3314@2(37->38) | 3357@2(38->39) | 3400@2(39->40) | 3443@2(40->41) | 3486@2(41->42) | 3487@2(42->1) | ]
cr the 1-th chain: [ 1->2->3->4->5->6->7->8->9->10->11->12->13->14->15->16->17->18->19->20->21->22->1 ] (#non-depot=21) {#cumul.=22}
cr the 2-th chain: [ 1->23->24->25->26->27->28->29->30->31->32->33->34->35->36->37->38->39->40->41->42->1 ] (#non-depot=20) {#cumul.=42}
c Latest Answer = 0 by 1 loops
c restarts              : 18007
c conflicts             : 6179143        (1726 /sec)
c decisions             : 86790198       (0.00 % random) (24243 /sec)
c propagations          : 23210606378    (6483375 /sec)
c conflict literals     : 5114961884     (23.18 % deleted)
c Memory used           : 5207.00 MB
c CPU time              : 3580.02 s
